SECTION Graph
Nodes 243
Edges 497
E 1 32 7
E 1 215 10
E 2 3 14
E 2 216 10
E 3 4 1
E 3 11 23
E 4 12 23
E 5 6 1
E 5 110 2
E 6 7 14
E 6 112 2
E 7 8 1
E 7 116 2
E 8 118 2
E 8 120 7
E 9 10 1
E 9 13 23
E 9 36 7
E 9 215 13
E 10 11 14
E 10 14 23
E 10 216 13
E 11 12 1
E 11 15 23
E 12 16 23
E 13 14 1
E 13 17 23
E 13 40 7
E 14 15 14
E 14 18 23
E 15 16 1
E 15 19 23
E 16 20 23
E 17 18 1
E 17 21 23
E 17 44 7
E 18 19 14
E 18 22 23
E 19 20 1
E 19 23 23
E 20 24 23
E 21 22 1
E 21 25 23
E 21 48 7
E 22 23 14
E 22 26 23
E 23 24 1
E 23 27 23
E 24 28 23
E 25 26 1
E 25 52 7
E 26 27 14
E 27 28 1
E 29 30 1
E 29 206 7
E 29 209 4
E 30 31 14
E 30 210 4
E 31 32 1
E 31 213 4
E 32 214 4
E 33 34 1
E 33 171 21
E 33 185 7
E 33 203 13
E 34 35 14
E 34 173 21
E 34 204 13
E 35 36 1
E 35 39 23
E 35 211 13
E 36 40 23
E 36 212 13
E 37 38 1
E 37 151 21
E 37 163 7
E 37 171 2
E 38 39 14
E 38 153 21
E 38 173 2
E 39 40 1
E 39 43 23
E 40 44 23
E 41 42 1
E 41 45 23
E 41 145 7
E 41 151 2
E 42 43 14
E 42 46 23
E 42 153 2
E 43 44 1
E 43 47 23
E 44 48 23
E 45 46 1
E 45 49 23
E 45 60 7
E 46 47 14
E 46 50 23
E 47 48 1
E 47 51 23
E 48 52 23
E 49 50 1
E 49 64 7
E 50 51 14
E 51 52 1
E 53 54 1
E 53 191 2
E 54 192 2
E 54 198 6
E 55 56 1
E 55 202 6
E 55 207 2
E 56 208 2
E 57 58 1
E 57 111 21
E 57 115 7
E 57 122 2
E 58 59 14
E 58 113 21
E 58 123 2
E 59 60 1
E 59 117 21
E 59 130 2
E 60 119 21
E 60 131 2
E 61 62 1
E 61 111 2
E 62 63 14
E 62 113 2
E 63 64 1
E 63 117 2
E 64 119 2
E 65 66 6
E 65 177 11
E 65 183 6
E 65 190 2
E 66 67 2
E 66 189 6
E 66 195 4
E 67 190 6
E 67 197 4
E 67 200 6
E 68 69 1
E 68 166 6
E 69 70 14
E 69 167 6
E 70 71 1
E 70 179 6
E 71 181 6
E 71 191 7
E 72 73 1
E 72 76 23
E 72 95 7
E 72 158 11
E 73 74 14
E 73 77 23
E 73 159 11
E 74 75 1
E 74 160 2
E 74 174 11
E 75 162 2
E 75 170 7
E 75 175 11
E 76 77 1
E 76 99 7
E 76 132 2
E 77 78 14
E 77 134 2
E 78 79 1
E 78 142 2
E 78 160 21
E 79 144 2
E 79 150 7
E 79 162 21
E 80 81 1
E 80 84 23
E 80 103 7
E 80 132 21
E 81 82 14
E 81 85 23
E 81 134 21
E 82 83 1
E 82 127 2
E 82 142 21
E 83 129 2
E 83 136 7
E 83 144 21
E 84 85 1
E 84 108 2
E 85 86 14
E 85 109 2
E 86 87 1
E 86 114 2
E 86 127 21
E 87 115 2
E 87 122 7
E 87 129 21
E 88 89 1
E 88 108 21
E 89 90 14
E 89 109 21
E 90 91 1
E 90 114 21
E 91 111 7
E 91 115 21
E 92 93 1
E 92 96 23
E 92 107 7
E 93 94 14
E 93 97 23
E 94 95 1
E 94 98 23
E 95 99 23
E 96 97 1
E 96 118 7
E 96 120 2
E 97 98 14
E 97 121 2
E 98 99 1
E 98 126 2
E 99 128 2
E 100 101 1
E 100 120 21
E 101 102 14
E 101 121 21
E 102 103 1
E 102 126 21
E 103 128 21
E 104 105 1
E 104 110 23
E 105 106 14
E 105 112 23
E 106 107 1
E 106 116 23
E 107 118 23
E 108 109 1
E 109 114 14
E 110 112 1
E 111 113 1
E 112 116 14
E 113 117 14
E 114 115 1
E 116 118 1
E 117 119 1
E 120 121 1
E 121 126 14
E 122 123 1
E 122 133 21
E 123 124 6
E 123 135 21
E 124 125 2
E 124 138 21
E 125 130 6
E 125 140 21
E 126 128 1
E 127 129 1
E 128 132 7
E 129 133 7
E 130 131 1
E 130 143 21
E 131 145 21
E 132 134 1
E 133 135 1
E 133 136 2
E 134 142 14
E 135 137 2
E 135 138 6
E 136 137 1
E 136 148 21
E 137 139 6
E 137 149 21
E 138 139 2
E 138 140 2
E 139 141 2
E 139 154 21
E 140 141 2
E 140 143 6
E 141 146 6
E 141 156 21
E 142 144 1
E 143 145 1
E 143 146 2
E 144 148 7
E 145 147 2
E 146 147 1
E 146 161 21
E 147 151 7
E 147 163 21
E 148 149 1
E 148 150 2
E 149 152 2
E 149 154 6
E 150 152 1
E 150 168 21
E 151 153 1
E 152 155 6
E 152 169 21
E 154 155 2
E 154 156 2
E 155 157 2
E 155 176 21
E 156 157 2
E 156 161 6
E 157 164 6
E 157 178 21
E 158 159 1
E 158 166 6
E 159 167 6
E 159 174 14
E 160 162 1
E 161 163 1
E 161 164 2
E 162 168 7
E 163 165 2
E 164 165 1
E 164 184 21
E 165 171 7
E 165 185 21
E 166 167 1
E 167 179 14
E 168 169 1
E 168 170 2
E 169 172 2
E 169 176 6
E 170 172 1
E 170 182 11
E 171 173 1
E 172 177 6
E 172 183 11
E 174 175 1
E 174 179 6
E 175 181 6
E 175 182 7
E 176 177 2
E 176 178 2
E 177 180 2
E 178 180 2
E 178 184 6
E 179 181 1
E 180 186 6
E 180 190 11
E 181 188 7
E 182 183 1
E 182 188 6
E 183 189 6
E 184 185 1
E 184 186 2
E 185 187 2
E 186 187 1
E 186 193 11
E 187 194 11
E 188 189 1
E 188 191 6
E 189 192 6
E 190 193 6
E 191 192 1
E 192 196 6
E 193 194 1
E 193 200 6
E 194 201 6
E 194 203 7
E 195 196 2
E 195 197 2
E 196 198 2
E 196 199 2
E 197 199 2
E 197 205 6
E 198 202 2
E 199 202 2
E 199 207 6
E 200 201 1
E 200 205 4
E 201 206 4
E 201 209 7
E 203 204 1
E 203 209 6
E 204 210 6
E 204 211 14
E 205 206 1
E 205 207 2
E 206 208 2
E 207 208 1
E 209 210 1
E 210 213 14
E 211 212 1
E 211 213 6
E 212 214 6
E 212 215 7
E 213 214 1
E 215 216 1
E 1 217 100000
E 2 217 100000
E 3 217 100000
E 4 217 100000
E 5 218 100000
E 6 218 100000
E 7 218 100000
E 8 218 100000
E 9 219 100000
E 10 219 100000
E 11 219 100000
E 12 219 100000
E 13 220 100000
E 14 220 100000
E 15 220 100000
E 16 220 100000
E 17 221 100000
E 18 221 100000
E 19 221 100000
E 20 221 100000
E 21 222 100000
E 22 222 100000
E 23 222 100000
E 24 222 100000
E 25 223 100000
E 26 223 100000
E 27 223 100000
E 28 223 100000
E 29 224 100000
E 30 224 100000
E 31 224 100000
E 32 224 100000
E 33 225 100000
E 34 225 100000
E 35 225 100000
E 36 225 100000
E 37 226 100000
E 38 226 100000
E 39 226 100000
E 40 226 100000
E 41 227 100000
E 42 227 100000
E 43 227 100000
E 44 227 100000
E 45 228 100000
E 46 228 100000
E 47 228 100000
E 48 228 100000
E 49 229 100000
E 50 229 100000
E 51 229 100000
E 52 229 100000
E 53 230 100000
E 54 230 100000
E 55 230 100000
E 56 230 100000
E 57 231 100000
E 58 231 100000
E 59 231 100000
E 60 231 100000
E 61 232 100000
E 62 232 100000
E 63 232 100000
E 64 232 100000
E 65 233 100000
E 66 233 100000
E 67 233 100000
E 68 234 100000
E 69 234 100000
E 70 234 100000
E 71 234 100000
E 72 235 100000
E 73 235 100000
E 74 235 100000
E 75 235 100000
E 76 236 100000
E 77 236 100000
E 78 236 100000
E 79 236 100000
E 80 237 100000
E 81 237 100000
E 82 237 100000
E 83 237 100000
E 84 238 100000
E 85 238 100000
E 86 238 100000
E 87 238 100000
E 88 239 100000
E 89 239 100000
E 90 239 100000
E 91 239 100000
E 92 240 100000
E 93 240 100000
E 94 240 100000
E 95 240 100000
E 96 241 100000
E 97 241 100000
E 98 241 100000
E 99 241 100000
E 100 242 100000
E 101 242 100000
E 102 242 100000
E 103 242 100000
E 104 243 100000
E 105 243 100000
E 106 243 100000
E 107 243 100000
END

SECTION Terminals
Terminals 27
T 217
T 218
T 219
T 220
T 221
T 222
T 223
T 224
T 225
T 226
T 227
T 228
T 229
T 230
T 231
T 232
T 233
T 234
T 235
T 236
T 237
T 238
T 239
T 240
T 241
T 242
T 243
END

EOF
